0 4414
2 4402
3 4351
4 4337
7 4282
8 4272
9 4256
12 4239
20 4191
28 4185
36 4173
40 4166
42 4141
43 4110
44 4109
45 4087
55 4086
56 4076
59 4057
60 4042
64 4021
72 4003
74 3986
78 3975
80 3971
81 3949
82 3920
100 3914
111 3884
117 3882
119 3878
121 3877
124 3875
128 3866
132 3864
143 3849
159 3793
160 3789
170 3768
219 3762
223 3757
249 3750
252 3739
292 3738
295 3719
331 3715
337 3709
407 3675
409 3673
479 3650
505 3647
548 3642
549 3630
558 3629
625 3624
652 3610
695 3602
715 3599
722 3589
842 3583
865 3579
925 3577
958 3564
993 3560
1107 3554
1414 3539
1442 3535
1491 3532
1543 3521
1685 3515
1827 3513
1832 3510
1891 3508
1928 3490
2620 3485
2660 3479
2705 3468
5514 3464
6186 3462
6211 3458
9464 3457
9917 3455
10099 3452
31183 3451
48403 3447
49841 3442
63476 3441
63507 3436
66317 3433
67266 3430
72354 3428
